10
5
621024
0
0
10 18 122 93 169
1
0
5 18 109 72 152
2
0
9 21 86 111 145
3
0
12 18 139 67 119
4
0
5 26 122 54 157
5
0
14 21 84 81 150
6
0
8 26 90 78 164
7
0
8 17 91 80 147
8
0
8 17 105 114 149
9
0
5 20 120 87 184
